ingredients = {null, noodles, mushrooms, peppers, broccoli, peas, soySauce, flour, cheese, tomatoes, pepperoni, chicken, cream};
notIngredient = null;

contains = {none, meat, milk, gluten, egg};
nothing = none;

% cost in pounds sterling per 100g
ingredientsBuyCost = [0.00, 0.20, 0.50, 1.00, 1.00, 0.50, 1.00, 1.00, 0.50, 0.20, 1.00, 1.00, 0.50];
ingredientsStorageCost = [0.00, 0.20, 0.20, 0.10, 1.00, 1.00, 0.10, 1.00, 0.10, 1.00, 0.50, 1.00, 1.00];

meals = {vegChowMein, pepperoniPizza, chickenNoodles, mushroomSoup, kievs};

maxIngredients = 5;
mealIngredients = 
     [|noodles, mushrooms, peppers, broccoli, soySauce
     |flour, cheese, pepperoni, tomatoes, mushrooms
     |noodles, chicken, peas, soySauce, null
     |mushrooms, cream, null, null, null
     |chicken, flour, peas, broccoli, null|];
     
maxContains = 2;     
mealContains = [|gluten, none|
                 meat, milk|
                 meat, gluten|
                 milk, none|
                 meat, none|];

% amount of ingredient in meal x 100g
mealIngredientsAmounts = 
    [|1.0, 1.0, 0.5, 0.5, 0.0|
      2.0, 2.0, 2.0, 2.0, 0.5|
      2.0, 0.5, 2.0, 0.0, 0.0|
      1.0, 1.0, 1.0, 0.0, 0.0|
      2.0, 0.5, 1.0, 0.5, 0.0|];
          
% later add storage cost and purchase cost of ingredients and add to ingredientsCost.    
people = {Fairy, Vampire, Zombie, Witch, Warewolf, Angel, Mermaid, Elf, Giant, Goblin};

maxRefusals = 2;
doesNotEat =
     [|meat, none|
     meat, none|
     none, none|
     gluten, egg|
     meat, none|
     none, none|
     none, none|
     none, none|
     milk, none|
     egg, none|];
     
% contains = {none, meat, milk, gluten, egg};
numRefusals = [4, 3, 1, 1, 2]; % num people who do not eat categories. None means they eat everything.
